100
0 70 37 87 54 34 11 10 17 35 
14 18 15 16 88 69 95 9 63 4 
99 47 90 85 78 81 93 13 76 21 
8 94 12 24 44 30 72 91 46 68 
86 84 96 52 36 28 19 58 75 32 
48 51 71 40 7 3 39 59 74 26 
77 6 56 98 67 5 45 49 50 92 
82 20 33 25 61 65 89 31 38 22 
2 62 73 41 64 97 60 27 79 43 
53 66 57 55 83 23 1 80 42 29 
